p edge 23 37
e 1 2
e 1 3
e 1 6
e 1 8
e 1 10
e 1 11
e 1 16
e 1 17
e 1 21
e 2 5
e 2 8
e 2 14
e 2 15
e 3 12
e 3 16
e 3 20
e 4 5
e 4 15
e 5 6
e 5 7
e 5 8
e 5 14
e 6 8
e 6 21
e 7 13
e 8 9
e 8 11
e 9 12
e 10 15
e 11 21
e 12 19
e 17 18
e 17 20
e 17 22
e 18 22
e 20 21
e 21 23
